HUN,8,6,679
1,47,2,43,4,17,3,66,5,73,0,92
1,98,4,15,0,17,3,15,2,22,5,60
1,52,2,1,5,2,0,43,3,22,4,98
4,30,3,4,5,9,1,91,2,63,0,4
4,71,1,59,3,34,5,10,0,99,2,35
2,80,4,17,1,37,3,11,5,66,0,61
1,59,4,64,2,51,5,82,3,97,0,27
3,11,1,39,5,79,2,66,0,70,4,16
